NAME : swiss42-C-5-0-b.1540.tour
COMMENT : Length = 1540
COMMENT : Found by LKH-3 [Keld Helsgaun] Tue Jul 30 13:14:05 2024
TYPE : TOUR
DIMENSION : 42
TOUR_SECTION
1
40
22
41
25
23
39
35
34
21
36
37
32
18
38
8
16
17
15
20
6
27
7
2
5
4
28
3
29
33
31
30
9
10
24
42
11
26
12
13
19
14
-1
EOF
